# Solution for model obj
# Objective value = 3.5668557477086488e+03
ch1_enwk_4nc_1_m_perc 1.1252848654970030e-01
ch1_enwk_4nc_1_y 1
ch1_enwk_4nc_2_m_perc 0
ch1_enwk_4nc_2_y 0
ch1_enwk_4nc_3_m_perc 0
ch1_enwk_4nc_3_y 0
ch1_enwk_4nc_4_m_perc 0
ch1_enwk_4nc_4_y 0
ch2_enwk_4nc_1_m_perc 0
ch2_enwk_4nc_1_y 0
ch2_enwk_4nc_2_m_perc 4.8747151345029943e-01
ch2_enwk_4nc_2_y 1
ch2_enwk_4nc_3_m_perc 0
ch2_enwk_4nc_3_y 0
ch2_enwk_4nc_4_m_perc 0
ch2_enwk_4nc_4_y 0
ch3_enwk_4nc_1_m_perc 0
ch3_enwk_4nc_1_y 0
ch3_enwk_4nc_2_m_perc 0.4
ch3_enwk_4nc_2_y 1
ch3_enwk_4nc_3_m_perc 0
ch3_enwk_4nc_3_y 0
ch3_enwk_4nc_4_m_perc 0
ch3_enwk_4nc_4_y 0
ch1_ep_4nc_1_m_flow 0
ch1_ep_4nc_1_y 0
ch1_ep_4nc_1_delp 0
ch1_ep_4nc_2_m_flow 0
ch1_ep_4nc_2_y 0
ch1_ep_4nc_2_delp 0
ch1_ep_4nc_3_m_flow 1.2141598641739563e+02
ch1_ep_4nc_3_y 1
ch1_ep_4nc_3_delp 8.0869111369268349e+00
ch1_ep_4nc_4_m_flow 0
ch1_ep_4nc_4_y 0
ch1_ep_4nc_4_delp 0
ch2_ep_4nc_1_m_flow 0
ch2_ep_4nc_1_y 0
ch2_ep_4nc_1_delp 0
ch2_ep_4nc_2_m_flow 0
ch2_ep_4nc_2_y 0
ch2_ep_4nc_2_delp 0
ch2_ep_4nc_3_m_flow 5.2597201358260406e+02
ch2_ep_4nc_3_y 1
ch2_ep_4nc_3_delp 1.0196668100902972e+01
ch2_ep_4nc_4_m_flow 0
ch2_ep_4nc_4_y 0
ch2_ep_4nc_4_delp 0
ch3_ep_4nc_1_m_flow 0
ch3_ep_4nc_1_y 0
ch3_ep_4nc_1_delp 0
ch3_ep_4nc_2_m_flow 0
ch3_ep_4nc_2_y 0
ch3_ep_4nc_2_delp 0
ch3_ep_4nc_3_m_flow 4.3159200000000004e+02
ch3_ep_4nc_3_y 1
ch3_ep_4nc_3_delp 9.3602956183723585e+00
ch3_ep_4nc_4_m_flow 0
ch3_ep_4nc_4_y 0
ch3_ep_4nc_4_delp 0
sp1_temp_4nc_t_inout 4.8461310214770167e-02
sp1_temp_4nc_y 1
ice_nwk_4nc_1_m_perc 2.2691965322155255e-01
ice_nwk_4nc_1_y 1
ice_nwk_4nc_2_m_perc 0
ice_nwk_4nc_2_y 0
ice_nwk_4nc_3_m_perc 0
ice_nwk_4nc_3_y 0
ice_nwk_4nc_4_m_perc 0
ice_nwk_4nc_4_y 0
gv2_nwk_4nc_1_m_perc 1.1345982661077625e-01
gv2_nwk_4nc_1_y 1
gv2_nwk_4nc_2_m_perc 0
gv2_nwk_4nc_2_y 0
gv2_nwk_4nc_3_m_perc 0
gv2_nwk_4nc_3_y 0
gv2_nwk_4nc_4_m_perc 0
gv2_nwk_4nc_4_y 0
hsb_nwk_4nc_1_m_perc 1.1345982661077625e-01
hsb_nwk_4nc_1_y 1
hsb_nwk_4nc_2_m_perc 0
hsb_nwk_4nc_2_y 0
hsb_nwk_4nc_3_m_perc 0
hsb_nwk_4nc_3_y 0
hsb_nwk_4nc_4_m_perc 0
hsb_nwk_4nc_4_y 0
tro_nwk_4nc_1_m_perc 2.2691965322155250e-01
tro_nwk_4nc_1_y 1
tro_nwk_4nc_2_m_perc 0
tro_nwk_4nc_2_y 0
tro_nwk_4nc_3_m_perc 0
tro_nwk_4nc_3_y 0
tro_nwk_4nc_4_m_perc 0
tro_nwk_4nc_4_y 0
pfa_nwk_4nc_1_m_perc 1.1345982661077625e-01
pfa_nwk_4nc_1_y 1
pfa_nwk_4nc_2_m_perc 0
pfa_nwk_4nc_2_y 0
pfa_nwk_4nc_3_m_perc 0
pfa_nwk_4nc_3_y 0
pfa_nwk_4nc_4_m_perc 0
pfa_nwk_4nc_4_y 0
ser_nwk_4nc_1_m_perc 1.1345982661077625e-01
ser_nwk_4nc_1_y 1
ser_nwk_4nc_2_m_perc 0
ser_nwk_4nc_2_y 0
ser_nwk_4nc_3_m_perc 0
ser_nwk_4nc_3_y 0
ser_nwk_4nc_4_m_perc 0
ser_nwk_4nc_4_y 0
para_nwk_con_4nc_delp 5.0279392015335425e+01
para_nwk_con_4nc_y 1
dist_np_4nc_combi_0_0_m_flow 0
dist_np_4nc_combi_0_0_y 0
dist_np_4nc_combi_0_0_delp 0
dist_np_4nc_combi_0_1_m_flow 0
dist_np_4nc_combi_0_1_y 0
dist_np_4nc_combi_0_1_delp 0
dist_np_4nc_combi_0_2_m_flow 0
dist_np_4nc_combi_0_2_y 0
dist_np_4nc_combi_0_2_delp 0
dist_np_4nc_combi_0_3_m_flow 1.9875794909750556e-10
dist_np_4nc_combi_0_3_y 0
dist_np_4nc_combi_0_3_delp 0
dist_np_4nc_combi_1_0_m_flow 0
dist_np_4nc_combi_1_0_y 0
dist_np_4nc_combi_1_0_delp 0
dist_np_4nc_combi_1_1_m_flow 0
dist_np_4nc_combi_1_1_y 0
dist_np_4nc_combi_1_1_delp 0
dist_np_4nc_combi_1_2_m_flow 0
dist_np_4nc_combi_1_2_y 0
dist_np_4nc_combi_1_2_delp 0
dist_np_4nc_combi_1_3_m_flow 0
dist_np_4nc_combi_1_3_y 0
dist_np_4nc_combi_1_3_delp 0
dist_np_4nc_combi_2_0_m_flow 0
dist_np_4nc_combi_2_0_y 0
dist_np_4nc_combi_2_0_delp 0
dist_np_4nc_combi_2_1_m_flow 4.8968353486530810e+02
dist_np_4nc_combi_2_1_y 1
dist_np_4nc_combi_2_1_delp 5.0279392015335425e+01
dist_np_4nc_combi_2_2_m_flow 2.8401218498391785e-10
dist_np_4nc_combi_2_2_y 0
dist_np_4nc_combi_2_2_delp 0
dist_np_4nc_combi_2_3_m_flow 0
dist_np_4nc_combi_2_3_y 0
dist_np_4nc_combi_2_3_delp 0
dist_np_4nc_combi_3_0_m_flow 0
dist_np_4nc_combi_3_0_y 0
dist_np_4nc_combi_3_0_delp 0
dist_np_4nc_combi_3_1_m_flow 0
dist_np_4nc_combi_3_1_y 0
dist_np_4nc_combi_3_1_delp 0
dist_np_4nc_combi_3_2_m_flow 0
dist_np_4nc_combi_3_2_y 0
dist_np_4nc_combi_3_2_delp 0
dist_np_4nc_combi_3_3_m_flow 0
dist_np_4nc_combi_3_3_y 0
dist_np_4nc_combi_3_3_delp 0
dist_np_4nc_combi_4_0_m_flow 0
dist_np_4nc_combi_4_0_y 0
dist_np_4nc_combi_4_0_delp 0
dist_np_4nc_combi_4_1_m_flow 0
dist_np_4nc_combi_4_1_y 0
dist_np_4nc_combi_4_1_delp 0
dist_np_4nc_combi_4_2_m_flow 0
dist_np_4nc_combi_4_2_y 0
dist_np_4nc_combi_4_2_delp 0
dist_np_4nc_combi_4_3_m_flow 0
dist_np_4nc_combi_4_3_y 0
dist_np_4nc_combi_4_3_delp 0
dist_np_4nc_combi_5_0_m_flow 0
dist_np_4nc_combi_5_0_y 0
dist_np_4nc_combi_5_0_delp 0
dist_np_4nc_combi_5_1_m_flow 0
dist_np_4nc_combi_5_1_y 0
dist_np_4nc_combi_5_1_delp 0
dist_np_4nc_combi_5_2_m_flow 0
dist_np_4nc_combi_5_2_y 0
dist_np_4nc_combi_5_2_delp 0
dist_np_4nc_combi_5_3_m_flow 0
dist_np_4nc_combi_5_3_y 0
dist_np_4nc_combi_5_3_delp 0
dist_np_4nc_combi_6_0_m_flow 0
dist_np_4nc_combi_6_0_y 0
dist_np_4nc_combi_6_0_delp 0
dist_np_4nc_combi_6_1_m_flow 0
dist_np_4nc_combi_6_1_y 0
dist_np_4nc_combi_6_1_delp 0
dist_np_4nc_combi_6_2_m_flow 0
dist_np_4nc_combi_6_2_y 0
dist_np_4nc_combi_6_2_delp 0
dist_np_4nc_combi_6_3_m_flow 1.9088224308529990e-10
dist_np_4nc_combi_6_3_y 0
dist_np_4nc_combi_6_3_delp 0
ch1_4nc_1_evap_u0 0
ch1_4nc_1_evap_u0_y 0
ch1_4nc_1_evap_v0 0
ch1_4nc_1_evap_v0_y 0
ch1_4nc_1_evap_u1 0
ch1_4nc_1_evap_u1_y 0
ch1_4nc_1_evap_v1 0
ch1_4nc_1_evap_v1_y 0
ch1_4nc_1_evap_u2 0
ch1_4nc_1_evap_u2_y 0
ch1_4nc_1_evap_v2 0
ch1_4nc_1_evap_v2_y 0
ch1_4nc_1_evap_u3 0
ch1_4nc_1_evap_u3_y 0
ch1_4nc_1_evap_v3 0
ch1_4nc_1_evap_v3_y 0
ch1_4nc_1_evap_u4 0
ch1_4nc_1_evap_u4_y 0
ch1_4nc_1_evap_v4 0
ch1_4nc_1_evap_v4_y 0
ch1_4nc_1_evap_u5 0
ch1_4nc_1_evap_u5_y 0
ch1_4nc_1_evap_v5 0
ch1_4nc_1_evap_v5_y 0
ch1_4nc_1_evap_u6 0
ch1_4nc_1_evap_u6_y 0
ch1_4nc_1_evap_v6 0
ch1_4nc_1_evap_v6_y 0
ch1_4nc_1_evap_u7 0
ch1_4nc_1_evap_u7_y 0
ch1_4nc_1_evap_v7 0
ch1_4nc_1_evap_v7_y 0
ch1_4nc_1_evap_u8 0
ch1_4nc_1_evap_u8_y 0
ch1_4nc_1_evap_v8 0
ch1_4nc_1_evap_v8_y 0
ch1_4nc_1_evap_u9 0
ch1_4nc_1_evap_u9_y 0
ch1_4nc_1_evap_v9 0
ch1_4nc_1_evap_v9_y 0
ch1_4nc_1_evap_u10 0
ch1_4nc_1_evap_u10_y 0
ch1_4nc_1_evap_v10 0
ch1_4nc_1_evap_v10_y 0
ch1_4nc_1_evap_u11 0
ch1_4nc_1_evap_u11_y 0
ch1_4nc_1_evap_v11 0
ch1_4nc_1_evap_v11_y 0
ch1_4nc_1_evap_u12 0
ch1_4nc_1_evap_u12_y 0
ch1_4nc_1_evap_v12 0
ch1_4nc_1_evap_v12_y 0
ch1_4nc_1_evap_u13 0
ch1_4nc_1_evap_u13_y 0
ch1_4nc_1_evap_v13 0
ch1_4nc_1_evap_v13_y 0
ch1_4nc_1_evap_u14 0
ch1_4nc_1_evap_u14_y 0
ch1_4nc_1_evap_v14 0
ch1_4nc_1_evap_v14_y 0
ch1_4nc_1_evap_u15 0
ch1_4nc_1_evap_u15_y 0
ch1_4nc_1_evap_v15 0
ch1_4nc_1_evap_v15_y 0
ch1_4nc_1_evap_u16 0
ch1_4nc_1_evap_u16_y 0
ch1_4nc_1_evap_v16 0
ch1_4nc_1_evap_v16_y 0
ch1_4nc_1_evap_u17 0
ch1_4nc_1_evap_u17_y 0
ch1_4nc_1_evap_v17 0
ch1_4nc_1_evap_v17_y 0
ch1_4nc_1_evap_u18 0
ch1_4nc_1_evap_u18_y 0
ch1_4nc_1_evap_v18 0
ch1_4nc_1_evap_v18_y 0
ch1_4nc_1_evap_u19 0
ch1_4nc_1_evap_u19_y 0
ch1_4nc_1_evap_v19 0
ch1_4nc_1_evap_v19_y 0
ch1_4nc_2_evap_u0 0
ch1_4nc_2_evap_u0_y 0
ch1_4nc_2_evap_v0 0
ch1_4nc_2_evap_v0_y 0
ch1_4nc_2_evap_u1 0
ch1_4nc_2_evap_u1_y 0
ch1_4nc_2_evap_v1 0
ch1_4nc_2_evap_v1_y 0
ch1_4nc_2_evap_u2 0
ch1_4nc_2_evap_u2_y 0
ch1_4nc_2_evap_v2 0
ch1_4nc_2_evap_v2_y 0
ch1_4nc_2_evap_u3 0
ch1_4nc_2_evap_u3_y 0
ch1_4nc_2_evap_v3 0
ch1_4nc_2_evap_v3_y 0
ch1_4nc_2_evap_u4 0
ch1_4nc_2_evap_u4_y 0
ch1_4nc_2_evap_v4 0
ch1_4nc_2_evap_v4_y 0
ch1_4nc_2_evap_u5 0
ch1_4nc_2_evap_u5_y 0
ch1_4nc_2_evap_v5 0
ch1_4nc_2_evap_v5_y 0
ch1_4nc_2_evap_u6 0
ch1_4nc_2_evap_u6_y 0
ch1_4nc_2_evap_v6 0
ch1_4nc_2_evap_v6_y 0
ch1_4nc_2_evap_u7 0
ch1_4nc_2_evap_u7_y 0
ch1_4nc_2_evap_v7 0
ch1_4nc_2_evap_v7_y 0
ch1_4nc_2_evap_u8 0
ch1_4nc_2_evap_u8_y 0
ch1_4nc_2_evap_v8 0
ch1_4nc_2_evap_v8_y 0
ch1_4nc_2_evap_u9 0
ch1_4nc_2_evap_u9_y 0
ch1_4nc_2_evap_v9 0
ch1_4nc_2_evap_v9_y 0
ch1_4nc_2_evap_u10 0
ch1_4nc_2_evap_u10_y 0
ch1_4nc_2_evap_v10 0
ch1_4nc_2_evap_v10_y 0
ch1_4nc_2_evap_u11 0
ch1_4nc_2_evap_u11_y 0
ch1_4nc_2_evap_v11 0
ch1_4nc_2_evap_v11_y 0
ch1_4nc_2_evap_u12 0
ch1_4nc_2_evap_u12_y 0
ch1_4nc_2_evap_v12 0
ch1_4nc_2_evap_v12_y 0
ch1_4nc_2_evap_u13 0
ch1_4nc_2_evap_u13_y 0
ch1_4nc_2_evap_v13 0
ch1_4nc_2_evap_v13_y 0
ch1_4nc_2_evap_u14 0
ch1_4nc_2_evap_u14_y 0
ch1_4nc_2_evap_v14 0
ch1_4nc_2_evap_v14_y 0
ch1_4nc_2_evap_u15 0
ch1_4nc_2_evap_u15_y 0
ch1_4nc_2_evap_v15 0
ch1_4nc_2_evap_v15_y 0
ch1_4nc_2_evap_u16 0
ch1_4nc_2_evap_u16_y 0
ch1_4nc_2_evap_v16 0
ch1_4nc_2_evap_v16_y 0
ch1_4nc_2_evap_u17 0
ch1_4nc_2_evap_u17_y 0
ch1_4nc_2_evap_v17 0
ch1_4nc_2_evap_v17_y 0
ch1_4nc_2_evap_u18 0
ch1_4nc_2_evap_u18_y 0
ch1_4nc_2_evap_v18 0
ch1_4nc_2_evap_v18_y 0
ch1_4nc_2_evap_u19 0
ch1_4nc_2_evap_u19_y 0
ch1_4nc_2_evap_v19 0
ch1_4nc_2_evap_v19_y 0
ch1_4nc_3_evap_u0 0
ch1_4nc_3_evap_u0_y 0
ch1_4nc_3_evap_v0 0
ch1_4nc_3_evap_v0_y 0
ch1_4nc_3_evap_u1 0
ch1_4nc_3_evap_u1_y 0
ch1_4nc_3_evap_v1 0
ch1_4nc_3_evap_v1_y 0
ch1_4nc_3_evap_u2 2.2505697309939393e-01
ch1_4nc_3_evap_u2_y 1
ch1_4nc_3_evap_v2 0
ch1_4nc_3_evap_v2_y 0
ch1_4nc_3_evap_u3 0
ch1_4nc_3_evap_u3_y 0
ch1_4nc_3_evap_v3 0
ch1_4nc_3_evap_v3_y 0
ch1_4nc_3_evap_u4 0
ch1_4nc_3_evap_u4_y 0
ch1_4nc_3_evap_v4 0
ch1_4nc_3_evap_v4_y 0
ch1_4nc_3_evap_u5 0
ch1_4nc_3_evap_u5_y 0
ch1_4nc_3_evap_v5 0
ch1_4nc_3_evap_v5_y 0
ch1_4nc_3_evap_u6 0
ch1_4nc_3_evap_u6_y 0
ch1_4nc_3_evap_v6 0
ch1_4nc_3_evap_v6_y 0
ch1_4nc_3_evap_u7 0
ch1_4nc_3_evap_u7_y 0
ch1_4nc_3_evap_v7 0
ch1_4nc_3_evap_v7_y 0
ch1_4nc_3_evap_u8 0
ch1_4nc_3_evap_u8_y 0
ch1_4nc_3_evap_v8 0
ch1_4nc_3_evap_v8_y 0
ch1_4nc_3_evap_u9 0
ch1_4nc_3_evap_u9_y 0
ch1_4nc_3_evap_v9 0
ch1_4nc_3_evap_v9_y 0
ch1_4nc_3_evap_u10 0
ch1_4nc_3_evap_u10_y 0
ch1_4nc_3_evap_v10 0
ch1_4nc_3_evap_v10_y 1
ch1_4nc_3_evap_u11 0
ch1_4nc_3_evap_u11_y 0
ch1_4nc_3_evap_v11 0
ch1_4nc_3_evap_v11_y 0
ch1_4nc_3_evap_u12 0
ch1_4nc_3_evap_u12_y 0
ch1_4nc_3_evap_v12 0
ch1_4nc_3_evap_v12_y 0
ch1_4nc_3_evap_u13 0
ch1_4nc_3_evap_u13_y 0
ch1_4nc_3_evap_v13 0
ch1_4nc_3_evap_v13_y 0
ch1_4nc_3_evap_u14 0
ch1_4nc_3_evap_u14_y 0
ch1_4nc_3_evap_v14 0
ch1_4nc_3_evap_v14_y 0
ch1_4nc_3_evap_u15 0
ch1_4nc_3_evap_u15_y 0
ch1_4nc_3_evap_v15 0
ch1_4nc_3_evap_v15_y 0
ch1_4nc_3_evap_u16 0
ch1_4nc_3_evap_u16_y 0
ch1_4nc_3_evap_v16 0
ch1_4nc_3_evap_v16_y 0
ch1_4nc_3_evap_u17 0
ch1_4nc_3_evap_u17_y 0
ch1_4nc_3_evap_v17 0
ch1_4nc_3_evap_v17_y 0
ch1_4nc_3_evap_u18 0
ch1_4nc_3_evap_u18_y 0
ch1_4nc_3_evap_v18 0
ch1_4nc_3_evap_v18_y 0
ch1_4nc_3_evap_u19 0
ch1_4nc_3_evap_u19_y 0
ch1_4nc_3_evap_v19 0
ch1_4nc_3_evap_v19_y 0
ch1_4nc_4_evap_u0 0
ch1_4nc_4_evap_u0_y 0
ch1_4nc_4_evap_v0 0
ch1_4nc_4_evap_v0_y 0
ch1_4nc_4_evap_u1 0
ch1_4nc_4_evap_u1_y 0
ch1_4nc_4_evap_v1 0
ch1_4nc_4_evap_v1_y 0
ch1_4nc_4_evap_u2 0
ch1_4nc_4_evap_u2_y 0
ch1_4nc_4_evap_v2 0
ch1_4nc_4_evap_v2_y 0
ch1_4nc_4_evap_u3 0
ch1_4nc_4_evap_u3_y 0
ch1_4nc_4_evap_v3 0
ch1_4nc_4_evap_v3_y 0
ch1_4nc_4_evap_u4 0
ch1_4nc_4_evap_u4_y 0
ch1_4nc_4_evap_v4 0
ch1_4nc_4_evap_v4_y 0
ch1_4nc_4_evap_u5 0
ch1_4nc_4_evap_u5_y 0
ch1_4nc_4_evap_v5 0
ch1_4nc_4_evap_v5_y 0
ch1_4nc_4_evap_u6 0
ch1_4nc_4_evap_u6_y 0
ch1_4nc_4_evap_v6 0
ch1_4nc_4_evap_v6_y 0
ch1_4nc_4_evap_u7 0
ch1_4nc_4_evap_u7_y 0
ch1_4nc_4_evap_v7 0
ch1_4nc_4_evap_v7_y 0
ch1_4nc_4_evap_u8 0
ch1_4nc_4_evap_u8_y 0
ch1_4nc_4_evap_v8 0
ch1_4nc_4_evap_v8_y 0
ch1_4nc_4_evap_u9 0
ch1_4nc_4_evap_u9_y 0
ch1_4nc_4_evap_v9 0
ch1_4nc_4_evap_v9_y 0
ch1_4nc_4_evap_u10 0
ch1_4nc_4_evap_u10_y 0
ch1_4nc_4_evap_v10 0
ch1_4nc_4_evap_v10_y 0
ch1_4nc_4_evap_u11 0
ch1_4nc_4_evap_u11_y 0
ch1_4nc_4_evap_v11 0
ch1_4nc_4_evap_v11_y 0
ch1_4nc_4_evap_u12 0
ch1_4nc_4_evap_u12_y 0
ch1_4nc_4_evap_v12 0
ch1_4nc_4_evap_v12_y 0
ch1_4nc_4_evap_u13 0
ch1_4nc_4_evap_u13_y 0
ch1_4nc_4_evap_v13 0
ch1_4nc_4_evap_v13_y 0
ch1_4nc_4_evap_u14 0
ch1_4nc_4_evap_u14_y 0
ch1_4nc_4_evap_v14 0
ch1_4nc_4_evap_v14_y 0
ch1_4nc_4_evap_u15 0
ch1_4nc_4_evap_u15_y 0
ch1_4nc_4_evap_v15 0
ch1_4nc_4_evap_v15_y 0
ch1_4nc_4_evap_u16 0
ch1_4nc_4_evap_u16_y 0
ch1_4nc_4_evap_v16 0
ch1_4nc_4_evap_v16_y 0
ch1_4nc_4_evap_u17 0
ch1_4nc_4_evap_u17_y 0
ch1_4nc_4_evap_v17 0
ch1_4nc_4_evap_v17_y 0
ch1_4nc_4_evap_u18 0
ch1_4nc_4_evap_u18_y 0
ch1_4nc_4_evap_v18 0
ch1_4nc_4_evap_v18_y 0
ch1_4nc_4_evap_u19 0
ch1_4nc_4_evap_u19_y 0
ch1_4nc_4_evap_v19 0
ch1_4nc_4_evap_v19_y 0
ch2_4nc_1_evap_u0 0
ch2_4nc_1_evap_u0_y 0
ch2_4nc_1_evap_v0 0
ch2_4nc_1_evap_v0_y 0
ch2_4nc_1_evap_u1 0
ch2_4nc_1_evap_u1_y 0
ch2_4nc_1_evap_v1 0
ch2_4nc_1_evap_v1_y 0
ch2_4nc_1_evap_u2 0
ch2_4nc_1_evap_u2_y 0
ch2_4nc_1_evap_v2 0
ch2_4nc_1_evap_v2_y 0
ch2_4nc_1_evap_u3 0
ch2_4nc_1_evap_u3_y 0
ch2_4nc_1_evap_v3 0
ch2_4nc_1_evap_v3_y 0
ch2_4nc_1_evap_u4 0
ch2_4nc_1_evap_u4_y 0
ch2_4nc_1_evap_v4 0
ch2_4nc_1_evap_v4_y 0
ch2_4nc_1_evap_u5 0
ch2_4nc_1_evap_u5_y 0
ch2_4nc_1_evap_v5 0
ch2_4nc_1_evap_v5_y 0
ch2_4nc_1_evap_u6 0
ch2_4nc_1_evap_u6_y 0
ch2_4nc_1_evap_v6 0
ch2_4nc_1_evap_v6_y 0
ch2_4nc_1_evap_u7 0
ch2_4nc_1_evap_u7_y 0
ch2_4nc_1_evap_v7 0
ch2_4nc_1_evap_v7_y 0
ch2_4nc_1_evap_u8 0
ch2_4nc_1_evap_u8_y 0
ch2_4nc_1_evap_v8 0
ch2_4nc_1_evap_v8_y 0
ch2_4nc_1_evap_u9 0
ch2_4nc_1_evap_u9_y 0
ch2_4nc_1_evap_v9 0
ch2_4nc_1_evap_v9_y 0
ch2_4nc_1_evap_u10 0
ch2_4nc_1_evap_u10_y 0
ch2_4nc_1_evap_v10 0
ch2_4nc_1_evap_v10_y 0
ch2_4nc_1_evap_u11 0
ch2_4nc_1_evap_u11_y 0
ch2_4nc_1_evap_v11 0
ch2_4nc_1_evap_v11_y 0
ch2_4nc_1_evap_u12 0
ch2_4nc_1_evap_u12_y 0
ch2_4nc_1_evap_v12 0
ch2_4nc_1_evap_v12_y 0
ch2_4nc_1_evap_u13 0
ch2_4nc_1_evap_u13_y 0
ch2_4nc_1_evap_v13 0
ch2_4nc_1_evap_v13_y 0
ch2_4nc_1_evap_u14 0
ch2_4nc_1_evap_u14_y 0
ch2_4nc_1_evap_v14 0
ch2_4nc_1_evap_v14_y 0
ch2_4nc_1_evap_u15 0
ch2_4nc_1_evap_u15_y 0
ch2_4nc_1_evap_v15 0
ch2_4nc_1_evap_v15_y 0
ch2_4nc_1_evap_u16 0
ch2_4nc_1_evap_u16_y 0
ch2_4nc_1_evap_v16 0
ch2_4nc_1_evap_v16_y 0
ch2_4nc_1_evap_u17 0
ch2_4nc_1_evap_u17_y 0
ch2_4nc_1_evap_v17 0
ch2_4nc_1_evap_v17_y 0
ch2_4nc_1_evap_u18 0
ch2_4nc_1_evap_u18_y 0
ch2_4nc_1_evap_v18 0
ch2_4nc_1_evap_v18_y 0
ch2_4nc_1_evap_u19 0
ch2_4nc_1_evap_u19_y 0
ch2_4nc_1_evap_v19 0
ch2_4nc_1_evap_v19_y 0
ch2_4nc_2_evap_u0 0
ch2_4nc_2_evap_u0_y 0
ch2_4nc_2_evap_v0 0
ch2_4nc_2_evap_v0_y 0
ch2_4nc_2_evap_u1 0
ch2_4nc_2_evap_u1_y 0
ch2_4nc_2_evap_v1 0
ch2_4nc_2_evap_v1_y 0
ch2_4nc_2_evap_u2 0
ch2_4nc_2_evap_u2_y 0
ch2_4nc_2_evap_v2 0
ch2_4nc_2_evap_v2_y 0
ch2_4nc_2_evap_u3 0
ch2_4nc_2_evap_u3_y 0
ch2_4nc_2_evap_v3 0
ch2_4nc_2_evap_v3_y 0
ch2_4nc_2_evap_u4 0
ch2_4nc_2_evap_u4_y 0
ch2_4nc_2_evap_v4 0
ch2_4nc_2_evap_v4_y 0
ch2_4nc_2_evap_u5 0
ch2_4nc_2_evap_u5_y 0
ch2_4nc_2_evap_v5 0
ch2_4nc_2_evap_v5_y 0
ch2_4nc_2_evap_u6 0
ch2_4nc_2_evap_u6_y 0
ch2_4nc_2_evap_v6 0
ch2_4nc_2_evap_v6_y 0
ch2_4nc_2_evap_u7 0
ch2_4nc_2_evap_u7_y 0
ch2_4nc_2_evap_v7 0
ch2_4nc_2_evap_v7_y 0
ch2_4nc_2_evap_u8 0
ch2_4nc_2_evap_u8_y 0
ch2_4nc_2_evap_v8 0
ch2_4nc_2_evap_v8_y 0
ch2_4nc_2_evap_u9 0
ch2_4nc_2_evap_u9_y 0
ch2_4nc_2_evap_v9 0
ch2_4nc_2_evap_v9_y 0
ch2_4nc_2_evap_u10 0
ch2_4nc_2_evap_u10_y 0
ch2_4nc_2_evap_v10 0
ch2_4nc_2_evap_v10_y 0
ch2_4nc_2_evap_u11 0
ch2_4nc_2_evap_u11_y 0
ch2_4nc_2_evap_v11 0
ch2_4nc_2_evap_v11_y 0
ch2_4nc_2_evap_u12 0
ch2_4nc_2_evap_u12_y 0
ch2_4nc_2_evap_v12 0
ch2_4nc_2_evap_v12_y 0
ch2_4nc_2_evap_u13 0
ch2_4nc_2_evap_u13_y 0
ch2_4nc_2_evap_v13 0
ch2_4nc_2_evap_v13_y 0
ch2_4nc_2_evap_u14 0
ch2_4nc_2_evap_u14_y 0
ch2_4nc_2_evap_v14 0
ch2_4nc_2_evap_v14_y 0
ch2_4nc_2_evap_u15 0
ch2_4nc_2_evap_u15_y 0
ch2_4nc_2_evap_v15 0
ch2_4nc_2_evap_v15_y 0
ch2_4nc_2_evap_u16 0
ch2_4nc_2_evap_u16_y 0
ch2_4nc_2_evap_v16 0
ch2_4nc_2_evap_v16_y 0
ch2_4nc_2_evap_u17 0
ch2_4nc_2_evap_u17_y 0
ch2_4nc_2_evap_v17 0
ch2_4nc_2_evap_v17_y 0
ch2_4nc_2_evap_u18 0
ch2_4nc_2_evap_u18_y 0
ch2_4nc_2_evap_v18 0
ch2_4nc_2_evap_v18_y 0
ch2_4nc_2_evap_u19 0
ch2_4nc_2_evap_u19_y 0
ch2_4nc_2_evap_v19 0
ch2_4nc_2_evap_v19_y 0
ch2_4nc_3_evap_u0 0
ch2_4nc_3_evap_u0_y 0
ch2_4nc_3_evap_v0 0
ch2_4nc_3_evap_v0_y 0
ch2_4nc_3_evap_u1 0
ch2_4nc_3_evap_u1_y 0
ch2_4nc_3_evap_v1 0
ch2_4nc_3_evap_v1_y 0
ch2_4nc_3_evap_u2 0
ch2_4nc_3_evap_u2_y 0
ch2_4nc_3_evap_v2 0
ch2_4nc_3_evap_v2_y 0
ch2_4nc_3_evap_u3 0
ch2_4nc_3_evap_u3_y 0
ch2_4nc_3_evap_v3 0
ch2_4nc_3_evap_v3_y 0
ch2_4nc_3_evap_u4 0
ch2_4nc_3_evap_u4_y 0
ch2_4nc_3_evap_v4 0
ch2_4nc_3_evap_v4_y 0
ch2_4nc_3_evap_u5 0
ch2_4nc_3_evap_u5_y 0
ch2_4nc_3_evap_v5 0
ch2_4nc_3_evap_v5_y 0
ch2_4nc_3_evap_u6 0
ch2_4nc_3_evap_u6_y 0
ch2_4nc_3_evap_v6 0
ch2_4nc_3_evap_v6_y 0
ch2_4nc_3_evap_u7 0
ch2_4nc_3_evap_u7_y 0
ch2_4nc_3_evap_v7 0
ch2_4nc_3_evap_v7_y 0
ch2_4nc_3_evap_u8 0
ch2_4nc_3_evap_u8_y 0
ch2_4nc_3_evap_v8 0
ch2_4nc_3_evap_v8_y 0
ch2_4nc_3_evap_u9 0
ch2_4nc_3_evap_u9_y 0
ch2_4nc_3_evap_v9 0
ch2_4nc_3_evap_v9_y 0
ch2_4nc_3_evap_u10 0
ch2_4nc_3_evap_u10_y 0
ch2_4nc_3_evap_v10 0
ch2_4nc_3_evap_v10_y 0
ch2_4nc_3_evap_u11 0
ch2_4nc_3_evap_u11_y 0
ch2_4nc_3_evap_v11 0
ch2_4nc_3_evap_v11_y 0
ch2_4nc_3_evap_u12 0
ch2_4nc_3_evap_u12_y 0
ch2_4nc_3_evap_v12 0
ch2_4nc_3_evap_v12_y 0
ch2_4nc_3_evap_u13 0
ch2_4nc_3_evap_u13_y 0
ch2_4nc_3_evap_v13 0
ch2_4nc_3_evap_v13_y 0
ch2_4nc_3_evap_u14 0
ch2_4nc_3_evap_u14_y 0
ch2_4nc_3_evap_v14 0
ch2_4nc_3_evap_v14_y 0
ch2_4nc_3_evap_u15 0
ch2_4nc_3_evap_u15_y 0
ch2_4nc_3_evap_v15 0
ch2_4nc_3_evap_v15_y 0
ch2_4nc_3_evap_u16 0
ch2_4nc_3_evap_u16_y 0
ch2_4nc_3_evap_v16 0
ch2_4nc_3_evap_v16_y 0
ch2_4nc_3_evap_u17 0
ch2_4nc_3_evap_u17_y 0
ch2_4nc_3_evap_v17 0
ch2_4nc_3_evap_v17_y 0
ch2_4nc_3_evap_u18 0
ch2_4nc_3_evap_u18_y 0
ch2_4nc_3_evap_v18 0
ch2_4nc_3_evap_v18_y 0
ch2_4nc_3_evap_u19 0
ch2_4nc_3_evap_u19_y 0
ch2_4nc_3_evap_v19 0
ch2_4nc_3_evap_v19_y 0
ch2_4nc_4_evap_u0 0
ch2_4nc_4_evap_u0_y 0
ch2_4nc_4_evap_v0 0
ch2_4nc_4_evap_v0_y 0
ch2_4nc_4_evap_u1 0
ch2_4nc_4_evap_u1_y 0
ch2_4nc_4_evap_v1 0
ch2_4nc_4_evap_v1_y 0
ch2_4nc_4_evap_u2 0
ch2_4nc_4_evap_u2_y 0
ch2_4nc_4_evap_v2 0
ch2_4nc_4_evap_v2_y 0
ch2_4nc_4_evap_u3 0
ch2_4nc_4_evap_u3_y 0
ch2_4nc_4_evap_v3 0
ch2_4nc_4_evap_v3_y 0
ch2_4nc_4_evap_u4 0
ch2_4nc_4_evap_u4_y 0
ch2_4nc_4_evap_v4 0
ch2_4nc_4_evap_v4_y 0
ch2_4nc_4_evap_u5 5.3803702248472296e-01
ch2_4nc_4_evap_u5_y 1
ch2_4nc_4_evap_v5 0
ch2_4nc_4_evap_v5_y 0
ch2_4nc_4_evap_u6 0
ch2_4nc_4_evap_u6_y 0
ch2_4nc_4_evap_v6 0
ch2_4nc_4_evap_v6_y 0
ch2_4nc_4_evap_u7 0
ch2_4nc_4_evap_u7_y 0
ch2_4nc_4_evap_v7 0
ch2_4nc_4_evap_v7_y 0
ch2_4nc_4_evap_u8 0
ch2_4nc_4_evap_u8_y 0
ch2_4nc_4_evap_v8 0
ch2_4nc_4_evap_v8_y 0
ch2_4nc_4_evap_u9 0
ch2_4nc_4_evap_u9_y 0
ch2_4nc_4_evap_v9 0
ch2_4nc_4_evap_v9_y 0
ch2_4nc_4_evap_u10 0
ch2_4nc_4_evap_u10_y 0
ch2_4nc_4_evap_v10 0
ch2_4nc_4_evap_v10_y 0
ch2_4nc_4_evap_u11 0
ch2_4nc_4_evap_u11_y 0
ch2_4nc_4_evap_v11 0
ch2_4nc_4_evap_v11_y 0
ch2_4nc_4_evap_u12 0
ch2_4nc_4_evap_u12_y 0
ch2_4nc_4_evap_v12 0
ch2_4nc_4_evap_v12_y 0
ch2_4nc_4_evap_u13 0
ch2_4nc_4_evap_u13_y 0
ch2_4nc_4_evap_v13 0
ch2_4nc_4_evap_v13_y 0
ch2_4nc_4_evap_u14 0
ch2_4nc_4_evap_u14_y 0
ch2_4nc_4_evap_v14 4.3690600441587585e-01
ch2_4nc_4_evap_v14_y 1
ch2_4nc_4_evap_u15 0
ch2_4nc_4_evap_u15_y 0
ch2_4nc_4_evap_v15 0
ch2_4nc_4_evap_v15_y 0
ch2_4nc_4_evap_u16 0
ch2_4nc_4_evap_u16_y 0
ch2_4nc_4_evap_v16 0
ch2_4nc_4_evap_v16_y 0
ch2_4nc_4_evap_u17 0
ch2_4nc_4_evap_u17_y 0
ch2_4nc_4_evap_v17 0
ch2_4nc_4_evap_v17_y 0
ch2_4nc_4_evap_u18 0
ch2_4nc_4_evap_u18_y 0
ch2_4nc_4_evap_v18 0
ch2_4nc_4_evap_v18_y 0
ch2_4nc_4_evap_u19 0
ch2_4nc_4_evap_u19_y 0
ch2_4nc_4_evap_v19 0
ch2_4nc_4_evap_v19_y 0
ch3_4nc_1_evap_u0 0
ch3_4nc_1_evap_u0_y 0
ch3_4nc_1_evap_v0 0
ch3_4nc_1_evap_v0_y 0
ch3_4nc_1_evap_u1 0
ch3_4nc_1_evap_u1_y 0
ch3_4nc_1_evap_v1 0
ch3_4nc_1_evap_v1_y 0
ch3_4nc_1_evap_u2 0
ch3_4nc_1_evap_u2_y 0
ch3_4nc_1_evap_v2 0
ch3_4nc_1_evap_v2_y 0
ch3_4nc_1_evap_u3 0
ch3_4nc_1_evap_u3_y 0
ch3_4nc_1_evap_v3 0
ch3_4nc_1_evap_v3_y 0
ch3_4nc_1_evap_u4 0
ch3_4nc_1_evap_u4_y 0
ch3_4nc_1_evap_v4 0
ch3_4nc_1_evap_v4_y 0
ch3_4nc_1_evap_u5 0
ch3_4nc_1_evap_u5_y 0
ch3_4nc_1_evap_v5 0
ch3_4nc_1_evap_v5_y 0
ch3_4nc_1_evap_u6 0
ch3_4nc_1_evap_u6_y 0
ch3_4nc_1_evap_v6 0
ch3_4nc_1_evap_v6_y 0
ch3_4nc_1_evap_u7 0
ch3_4nc_1_evap_u7_y 0
ch3_4nc_1_evap_v7 0
ch3_4nc_1_evap_v7_y 0
ch3_4nc_1_evap_u8 0
ch3_4nc_1_evap_u8_y 0
ch3_4nc_1_evap_v8 0
ch3_4nc_1_evap_v8_y 0
ch3_4nc_1_evap_u9 0
ch3_4nc_1_evap_u9_y 0
ch3_4nc_1_evap_v9 0
ch3_4nc_1_evap_v9_y 0
ch3_4nc_1_evap_u10 0
ch3_4nc_1_evap_u10_y 0
ch3_4nc_1_evap_v10 0
ch3_4nc_1_evap_v10_y 0
ch3_4nc_1_evap_u11 0
ch3_4nc_1_evap_u11_y 0
ch3_4nc_1_evap_v11 0
ch3_4nc_1_evap_v11_y 0
ch3_4nc_1_evap_u12 0
ch3_4nc_1_evap_u12_y 0
ch3_4nc_1_evap_v12 0
ch3_4nc_1_evap_v12_y 0
ch3_4nc_1_evap_u13 0
ch3_4nc_1_evap_u13_y 0
ch3_4nc_1_evap_v13 0
ch3_4nc_1_evap_v13_y 0
ch3_4nc_1_evap_u14 0
ch3_4nc_1_evap_u14_y 0
ch3_4nc_1_evap_v14 0
ch3_4nc_1_evap_v14_y 0
ch3_4nc_1_evap_u15 0
ch3_4nc_1_evap_u15_y 0
ch3_4nc_1_evap_v15 0
ch3_4nc_1_evap_v15_y 0
ch3_4nc_1_evap_u16 0
ch3_4nc_1_evap_u16_y 0
ch3_4nc_1_evap_v16 0
ch3_4nc_1_evap_v16_y 0
ch3_4nc_1_evap_u17 0
ch3_4nc_1_evap_u17_y 0
ch3_4nc_1_evap_v17 0
ch3_4nc_1_evap_v17_y 0
ch3_4nc_1_evap_u18 0
ch3_4nc_1_evap_u18_y 0
ch3_4nc_1_evap_v18 0
ch3_4nc_1_evap_v18_y 0
ch3_4nc_1_evap_u19 0
ch3_4nc_1_evap_u19_y 0
ch3_4nc_1_evap_v19 0
ch3_4nc_1_evap_v19_y 0
ch3_4nc_2_evap_u0 0
ch3_4nc_2_evap_u0_y 0
ch3_4nc_2_evap_v0 0
ch3_4nc_2_evap_v0_y 0
ch3_4nc_2_evap_u1 0
ch3_4nc_2_evap_u1_y 0
ch3_4nc_2_evap_v1 0
ch3_4nc_2_evap_v1_y 0
ch3_4nc_2_evap_u2 0
ch3_4nc_2_evap_u2_y 0
ch3_4nc_2_evap_v2 0
ch3_4nc_2_evap_v2_y 0
ch3_4nc_2_evap_u3 0
ch3_4nc_2_evap_u3_y 0
ch3_4nc_2_evap_v3 0
ch3_4nc_2_evap_v3_y 0
ch3_4nc_2_evap_u4 0
ch3_4nc_2_evap_u4_y 0
ch3_4nc_2_evap_v4 0
ch3_4nc_2_evap_v4_y 0
ch3_4nc_2_evap_u5 0
ch3_4nc_2_evap_u5_y 0
ch3_4nc_2_evap_v5 0
ch3_4nc_2_evap_v5_y 0
ch3_4nc_2_evap_u6 0
ch3_4nc_2_evap_u6_y 0
ch3_4nc_2_evap_v6 0
ch3_4nc_2_evap_v6_y 0
ch3_4nc_2_evap_u7 0
ch3_4nc_2_evap_u7_y 0
ch3_4nc_2_evap_v7 0
ch3_4nc_2_evap_v7_y 0
ch3_4nc_2_evap_u8 0
ch3_4nc_2_evap_u8_y 0
ch3_4nc_2_evap_v8 0
ch3_4nc_2_evap_v8_y 0
ch3_4nc_2_evap_u9 0
ch3_4nc_2_evap_u9_y 0
ch3_4nc_2_evap_v9 0
ch3_4nc_2_evap_v9_y 0
ch3_4nc_2_evap_u10 0
ch3_4nc_2_evap_u10_y 0
ch3_4nc_2_evap_v10 0
ch3_4nc_2_evap_v10_y 0
ch3_4nc_2_evap_u11 0
ch3_4nc_2_evap_u11_y 0
ch3_4nc_2_evap_v11 0
ch3_4nc_2_evap_v11_y 0
ch3_4nc_2_evap_u12 0
ch3_4nc_2_evap_u12_y 0
ch3_4nc_2_evap_v12 0
ch3_4nc_2_evap_v12_y 0
ch3_4nc_2_evap_u13 0
ch3_4nc_2_evap_u13_y 0
ch3_4nc_2_evap_v13 0
ch3_4nc_2_evap_v13_y 0
ch3_4nc_2_evap_u14 0
ch3_4nc_2_evap_u14_y 0
ch3_4nc_2_evap_v14 0
ch3_4nc_2_evap_v14_y 0
ch3_4nc_2_evap_u15 0
ch3_4nc_2_evap_u15_y 0
ch3_4nc_2_evap_v15 0
ch3_4nc_2_evap_v15_y 0
ch3_4nc_2_evap_u16 0
ch3_4nc_2_evap_u16_y 0
ch3_4nc_2_evap_v16 0
ch3_4nc_2_evap_v16_y 0
ch3_4nc_2_evap_u17 0
ch3_4nc_2_evap_u17_y 0
ch3_4nc_2_evap_v17 0
ch3_4nc_2_evap_v17_y 0
ch3_4nc_2_evap_u18 0
ch3_4nc_2_evap_u18_y 0
ch3_4nc_2_evap_v18 0
ch3_4nc_2_evap_v18_y 0
ch3_4nc_2_evap_u19 0
ch3_4nc_2_evap_u19_y 0
ch3_4nc_2_evap_v19 0
ch3_4nc_2_evap_v19_y 0
ch3_4nc_3_evap_u0 0
ch3_4nc_3_evap_u0_y 0
ch3_4nc_3_evap_v0 0
ch3_4nc_3_evap_v0_y 0
ch3_4nc_3_evap_u1 0
ch3_4nc_3_evap_u1_y 0
ch3_4nc_3_evap_v1 0
ch3_4nc_3_evap_v1_y 0
ch3_4nc_3_evap_u2 0
ch3_4nc_3_evap_u2_y 0
ch3_4nc_3_evap_v2 0
ch3_4nc_3_evap_v2_y 0
ch3_4nc_3_evap_u3 0
ch3_4nc_3_evap_u3_y 0
ch3_4nc_3_evap_v3 0
ch3_4nc_3_evap_v3_y 0
ch3_4nc_3_evap_u4 0
ch3_4nc_3_evap_u4_y 0
ch3_4nc_3_evap_v4 0
ch3_4nc_3_evap_v4_y 0
ch3_4nc_3_evap_u5 0
ch3_4nc_3_evap_u5_y 0
ch3_4nc_3_evap_v5 0
ch3_4nc_3_evap_v5_y 0
ch3_4nc_3_evap_u6 0
ch3_4nc_3_evap_u6_y 0
ch3_4nc_3_evap_v6 0
ch3_4nc_3_evap_v6_y 0
ch3_4nc_3_evap_u7 0
ch3_4nc_3_evap_u7_y 0
ch3_4nc_3_evap_v7 0
ch3_4nc_3_evap_v7_y 0
ch3_4nc_3_evap_u8 0
ch3_4nc_3_evap_u8_y 0
ch3_4nc_3_evap_v8 0
ch3_4nc_3_evap_v8_y 0
ch3_4nc_3_evap_u9 0
ch3_4nc_3_evap_u9_y 0
ch3_4nc_3_evap_v9 0
ch3_4nc_3_evap_v9_y 0
ch3_4nc_3_evap_u10 0
ch3_4nc_3_evap_u10_y 0
ch3_4nc_3_evap_v10 0
ch3_4nc_3_evap_v10_y 0
ch3_4nc_3_evap_u11 0
ch3_4nc_3_evap_u11_y 0
ch3_4nc_3_evap_v11 0
ch3_4nc_3_evap_v11_y 0
ch3_4nc_3_evap_u12 0
ch3_4nc_3_evap_u12_y 0
ch3_4nc_3_evap_v12 0
ch3_4nc_3_evap_v12_y 0
ch3_4nc_3_evap_u13 0
ch3_4nc_3_evap_u13_y 0
ch3_4nc_3_evap_v13 0
ch3_4nc_3_evap_v13_y 0
ch3_4nc_3_evap_u14 0
ch3_4nc_3_evap_u14_y 0
ch3_4nc_3_evap_v14 0
ch3_4nc_3_evap_v14_y 0
ch3_4nc_3_evap_u15 0
ch3_4nc_3_evap_u15_y 0
ch3_4nc_3_evap_v15 0
ch3_4nc_3_evap_v15_y 0
ch3_4nc_3_evap_u16 0
ch3_4nc_3_evap_u16_y 0
ch3_4nc_3_evap_v16 0
ch3_4nc_3_evap_v16_y 0
ch3_4nc_3_evap_u17 0
ch3_4nc_3_evap_u17_y 0
ch3_4nc_3_evap_v17 0
ch3_4nc_3_evap_v17_y 0
ch3_4nc_3_evap_u18 0
ch3_4nc_3_evap_u18_y 0
ch3_4nc_3_evap_v18 0
ch3_4nc_3_evap_v18_y 0
ch3_4nc_3_evap_u19 0
ch3_4nc_3_evap_u19_y 0
ch3_4nc_3_evap_v19 0
ch3_4nc_3_evap_v19_y 0
ch3_4nc_4_evap_u0 0
ch3_4nc_4_evap_u0_y 0
ch3_4nc_4_evap_v0 0
ch3_4nc_4_evap_v0_y 0
ch3_4nc_4_evap_u1 0
ch3_4nc_4_evap_u1_y 0
ch3_4nc_4_evap_v1 0
ch3_4nc_4_evap_v1_y 0
ch3_4nc_4_evap_u2 0
ch3_4nc_4_evap_u2_y 0
ch3_4nc_4_evap_v2 0
ch3_4nc_4_evap_v2_y 0
ch3_4nc_4_evap_u3 0
ch3_4nc_4_evap_u3_y 0
ch3_4nc_4_evap_v3 0
ch3_4nc_4_evap_v3_y 0
ch3_4nc_4_evap_u4 0.4
ch3_4nc_4_evap_u4_y 1
ch3_4nc_4_evap_v4 0
ch3_4nc_4_evap_v4_y 0
ch3_4nc_4_evap_u5 0
ch3_4nc_4_evap_u5_y 0
ch3_4nc_4_evap_v5 0
ch3_4nc_4_evap_v5_y 0
ch3_4nc_4_evap_u6 0
ch3_4nc_4_evap_u6_y 0
ch3_4nc_4_evap_v6 0
ch3_4nc_4_evap_v6_y 0
ch3_4nc_4_evap_u7 0
ch3_4nc_4_evap_u7_y 0
ch3_4nc_4_evap_v7 0
ch3_4nc_4_evap_v7_y 0
ch3_4nc_4_evap_u8 0
ch3_4nc_4_evap_u8_y 0
ch3_4nc_4_evap_v8 0
ch3_4nc_4_evap_v8_y 0
ch3_4nc_4_evap_u9 0
ch3_4nc_4_evap_u9_y 0
ch3_4nc_4_evap_v9 0
ch3_4nc_4_evap_v9_y 0
ch3_4nc_4_evap_u10 0
ch3_4nc_4_evap_u10_y 0
ch3_4nc_4_evap_v10 0
ch3_4nc_4_evap_v10_y 0
ch3_4nc_4_evap_u11 0
ch3_4nc_4_evap_u11_y 0
ch3_4nc_4_evap_v11 0
ch3_4nc_4_evap_v11_y 0
ch3_4nc_4_evap_u12 0
ch3_4nc_4_evap_u12_y 0
ch3_4nc_4_evap_v12 0
ch3_4nc_4_evap_v12_y 0
ch3_4nc_4_evap_u13 0
ch3_4nc_4_evap_u13_y 0
ch3_4nc_4_evap_v13 0
ch3_4nc_4_evap_v13_y 0
ch3_4nc_4_evap_u14 0
ch3_4nc_4_evap_u14_y 0
ch3_4nc_4_evap_v14 0.4
ch3_4nc_4_evap_v14_y 1
ch3_4nc_4_evap_u15 0
ch3_4nc_4_evap_u15_y 0
ch3_4nc_4_evap_v15 0
ch3_4nc_4_evap_v15_y 0
ch3_4nc_4_evap_u16 0
ch3_4nc_4_evap_u16_y 0
ch3_4nc_4_evap_v16 0
ch3_4nc_4_evap_v16_y 0
ch3_4nc_4_evap_u17 0
ch3_4nc_4_evap_u17_y 0
ch3_4nc_4_evap_v17 0
ch3_4nc_4_evap_v17_y 0
ch3_4nc_4_evap_u18 0
ch3_4nc_4_evap_u18_y 0
ch3_4nc_4_evap_v18 0
ch3_4nc_4_evap_v18_y 0
ch3_4nc_4_evap_u19 0
ch3_4nc_4_evap_u19_y 0
ch3_4nc_4_evap_v19 0
ch3_4nc_4_evap_v19_y 0
cp_nwk_4nc_u0 0
cp_nwk_4nc_u0_y 0
cp_nwk_4nc_v0 0
cp_nwk_4nc_v0_y 0
cp_nwk_4nc_u1 0
cp_nwk_4nc_u1_y 0
cp_nwk_4nc_v1 0
cp_nwk_4nc_v1_y 0
cp_nwk_4nc_u2 0
cp_nwk_4nc_u2_y 0
cp_nwk_4nc_v2 0
cp_nwk_4nc_v2_y 0
cp_nwk_4nc_u3 0
cp_nwk_4nc_u3_y 0
cp_nwk_4nc_v3 0
cp_nwk_4nc_v3_y 0
cp_nwk_4nc_u4 0
cp_nwk_4nc_u4_y 0
cp_nwk_4nc_v4 0
cp_nwk_4nc_v4_y 0
cp_nwk_4nc_u5 0
cp_nwk_4nc_u5_y 0
cp_nwk_4nc_v5 0
cp_nwk_4nc_v5_y 0
cp_nwk_4nc_u6 0
cp_nwk_4nc_u6_y 0
cp_nwk_4nc_v6 0
cp_nwk_4nc_v6_y 0
cp_nwk_4nc_u7 0
cp_nwk_4nc_u7_y 0
cp_nwk_4nc_v7 0
cp_nwk_4nc_v7_y 0
cp_nwk_4nc_u8 0
cp_nwk_4nc_u8_y 0
cp_nwk_4nc_v8 0
cp_nwk_4nc_v8_y 0
cp_nwk_4nc_u9 1
cp_nwk_4nc_u9_y 1
cp_nwk_4nc_v9 0
cp_nwk_4nc_v9_y 0
cp_nwk_4nc_u10 0
cp_nwk_4nc_u10_y 0
cp_nwk_4nc_v10 9.2321387113789455e-02
cp_nwk_4nc_v10_y 1
cp_nwk_4nc_u11 0
cp_nwk_4nc_u11_y 0
cp_nwk_4nc_v11 0
cp_nwk_4nc_v11_y 0
cp_nwk_4nc_u12 0
cp_nwk_4nc_u12_y 0
cp_nwk_4nc_v12 0
cp_nwk_4nc_v12_y 0
cp_nwk_4nc_u13 0
cp_nwk_4nc_u13_y 0
cp_nwk_4nc_v13 0
cp_nwk_4nc_v13_y 0
cp_nwk_4nc_u14 0
cp_nwk_4nc_u14_y 0
cp_nwk_4nc_v14 0
cp_nwk_4nc_v14_y 0
cp_nwk_4nc_u15 0
cp_nwk_4nc_u15_y 0
cp_nwk_4nc_v15 0
cp_nwk_4nc_v15_y 0
cp_nwk_4nc_u16 0
cp_nwk_4nc_u16_y 0
cp_nwk_4nc_v16 0
cp_nwk_4nc_v16_y 0
cp_nwk_4nc_u17 0
cp_nwk_4nc_u17_y 0
cp_nwk_4nc_v17 0
cp_nwk_4nc_v17_y 0
cp_nwk_4nc_u18 0
cp_nwk_4nc_u18_y 0
cp_nwk_4nc_v18 0
cp_nwk_4nc_v18_y 0
cp_nwk_4nc_u19 0
cp_nwk_4nc_u19_y 0
cp_nwk_4nc_v19 0
cp_nwk_4nc_v19_y 0
gv2_ss_4nc_u0 0
gv2_ss_4nc_u0_y 0
gv2_ss_4nc_v0 0
gv2_ss_4nc_v0_y 0
gv2_ss_4nc_u1 0
gv2_ss_4nc_u1_y 0
gv2_ss_4nc_v1 0
gv2_ss_4nc_v1_y 0
gv2_ss_4nc_u2 2.2691965322155250e-01
gv2_ss_4nc_u2_y 1
gv2_ss_4nc_v2 0
gv2_ss_4nc_v2_y 0
gv2_ss_4nc_u3 0
gv2_ss_4nc_u3_y 0
gv2_ss_4nc_v3 0
gv2_ss_4nc_v3_y 0
gv2_ss_4nc_u4 0
gv2_ss_4nc_u4_y 0
gv2_ss_4nc_v4 0
gv2_ss_4nc_v4_y 0
gv2_ss_4nc_u5 0
gv2_ss_4nc_u5_y 0
gv2_ss_4nc_v5 0
gv2_ss_4nc_v5_y 0
gv2_ss_4nc_u6 0
gv2_ss_4nc_u6_y 0
gv2_ss_4nc_v6 0
gv2_ss_4nc_v6_y 0
gv2_ss_4nc_u7 0
gv2_ss_4nc_u7_y 0
gv2_ss_4nc_v7 0
gv2_ss_4nc_v7_y 0
gv2_ss_4nc_u8 0
gv2_ss_4nc_u8_y 0
gv2_ss_4nc_v8 0
gv2_ss_4nc_v8_y 0
gv2_ss_4nc_u9 0
gv2_ss_4nc_u9_y 0
gv2_ss_4nc_v9 0
gv2_ss_4nc_v9_y 0
gv2_ss_4nc_u10 0
gv2_ss_4nc_u10_y 0
gv2_ss_4nc_v10 0
gv2_ss_4nc_v10_y 1
gv2_ss_4nc_u11 0
gv2_ss_4nc_u11_y 0
gv2_ss_4nc_v11 0
gv2_ss_4nc_v11_y 0
gv2_ss_4nc_u12 0
gv2_ss_4nc_u12_y 0
gv2_ss_4nc_v12 0
gv2_ss_4nc_v12_y 0
gv2_ss_4nc_u13 0
gv2_ss_4nc_u13_y 0
gv2_ss_4nc_v13 0
gv2_ss_4nc_v13_y 0
gv2_ss_4nc_u14 0
gv2_ss_4nc_u14_y 0
gv2_ss_4nc_v14 0
gv2_ss_4nc_v14_y 0
gv2_ss_4nc_u15 0
gv2_ss_4nc_u15_y 0
gv2_ss_4nc_v15 0
gv2_ss_4nc_v15_y 0
gv2_ss_4nc_u16 0
gv2_ss_4nc_u16_y 0
gv2_ss_4nc_v16 0
gv2_ss_4nc_v16_y 0
gv2_ss_4nc_u17 0
gv2_ss_4nc_u17_y 0
gv2_ss_4nc_v17 0
gv2_ss_4nc_v17_y 0
gv2_ss_4nc_u18 0
gv2_ss_4nc_u18_y 0
gv2_ss_4nc_v18 0
gv2_ss_4nc_v18_y 0
gv2_ss_4nc_u19 0
gv2_ss_4nc_u19_y 0
gv2_ss_4nc_v19 0
gv2_ss_4nc_v19_y 0
hsb_ss_4nc_u0 0
hsb_ss_4nc_u0_y 0
hsb_ss_4nc_v0 0
hsb_ss_4nc_v0_y 0
hsb_ss_4nc_u1 0
hsb_ss_4nc_u1_y 0
hsb_ss_4nc_v1 0
hsb_ss_4nc_v1_y 0
hsb_ss_4nc_u2 2.2691965322155250e-01
hsb_ss_4nc_u2_y 1
hsb_ss_4nc_v2 0
hsb_ss_4nc_v2_y 0
hsb_ss_4nc_u3 0
hsb_ss_4nc_u3_y 0
hsb_ss_4nc_v3 0
hsb_ss_4nc_v3_y 0
hsb_ss_4nc_u4 0
hsb_ss_4nc_u4_y 0
hsb_ss_4nc_v4 0
hsb_ss_4nc_v4_y 0
hsb_ss_4nc_u5 0
hsb_ss_4nc_u5_y 0
hsb_ss_4nc_v5 0
hsb_ss_4nc_v5_y 0
hsb_ss_4nc_u6 0
hsb_ss_4nc_u6_y 0
hsb_ss_4nc_v6 0
hsb_ss_4nc_v6_y 0
hsb_ss_4nc_u7 0
hsb_ss_4nc_u7_y 0
hsb_ss_4nc_v7 0
hsb_ss_4nc_v7_y 0
hsb_ss_4nc_u8 0
hsb_ss_4nc_u8_y 0
hsb_ss_4nc_v8 0
hsb_ss_4nc_v8_y 0
hsb_ss_4nc_u9 0
hsb_ss_4nc_u9_y 0
hsb_ss_4nc_v9 0
hsb_ss_4nc_v9_y 0
hsb_ss_4nc_u10 0
hsb_ss_4nc_u10_y 0
hsb_ss_4nc_v10 0
hsb_ss_4nc_v10_y 1
hsb_ss_4nc_u11 0
hsb_ss_4nc_u11_y 0
hsb_ss_4nc_v11 0
hsb_ss_4nc_v11_y 0
hsb_ss_4nc_u12 0
hsb_ss_4nc_u12_y 0
hsb_ss_4nc_v12 0
hsb_ss_4nc_v12_y 0
hsb_ss_4nc_u13 0
hsb_ss_4nc_u13_y 0
hsb_ss_4nc_v13 0
hsb_ss_4nc_v13_y 0
hsb_ss_4nc_u14 0
hsb_ss_4nc_u14_y 0
hsb_ss_4nc_v14 0
hsb_ss_4nc_v14_y 0
hsb_ss_4nc_u15 0
hsb_ss_4nc_u15_y 0
hsb_ss_4nc_v15 0
hsb_ss_4nc_v15_y 0
hsb_ss_4nc_u16 0
hsb_ss_4nc_u16_y 0
hsb_ss_4nc_v16 0
hsb_ss_4nc_v16_y 0
hsb_ss_4nc_u17 0
hsb_ss_4nc_u17_y 0
hsb_ss_4nc_v17 0
hsb_ss_4nc_v17_y 0
hsb_ss_4nc_u18 0
hsb_ss_4nc_u18_y 0
hsb_ss_4nc_v18 0
hsb_ss_4nc_v18_y 0
hsb_ss_4nc_u19 0
hsb_ss_4nc_u19_y 0
hsb_ss_4nc_v19 0
hsb_ss_4nc_v19_y 0
pfa_ss_4nc_u0 0
pfa_ss_4nc_u0_y 0
pfa_ss_4nc_v0 0
pfa_ss_4nc_v0_y 0
pfa_ss_4nc_u1 0
pfa_ss_4nc_u1_y 0
pfa_ss_4nc_v1 0
pfa_ss_4nc_v1_y 0
pfa_ss_4nc_u2 2.2691965322155250e-01
pfa_ss_4nc_u2_y 1
pfa_ss_4nc_v2 0
pfa_ss_4nc_v2_y 0
pfa_ss_4nc_u3 0
pfa_ss_4nc_u3_y 0
pfa_ss_4nc_v3 0
pfa_ss_4nc_v3_y 0
pfa_ss_4nc_u4 0
pfa_ss_4nc_u4_y 0
pfa_ss_4nc_v4 0
pfa_ss_4nc_v4_y 0
pfa_ss_4nc_u5 0
pfa_ss_4nc_u5_y 0
pfa_ss_4nc_v5 0
pfa_ss_4nc_v5_y 0
pfa_ss_4nc_u6 0
pfa_ss_4nc_u6_y 0
pfa_ss_4nc_v6 0
pfa_ss_4nc_v6_y 0
pfa_ss_4nc_u7 0
pfa_ss_4nc_u7_y 0
pfa_ss_4nc_v7 0
pfa_ss_4nc_v7_y 0
pfa_ss_4nc_u8 0
pfa_ss_4nc_u8_y 0
pfa_ss_4nc_v8 0
pfa_ss_4nc_v8_y 0
pfa_ss_4nc_u9 0
pfa_ss_4nc_u9_y 0
pfa_ss_4nc_v9 0
pfa_ss_4nc_v9_y 0
pfa_ss_4nc_u10 0
pfa_ss_4nc_u10_y 0
pfa_ss_4nc_v10 0
pfa_ss_4nc_v10_y 1
pfa_ss_4nc_u11 0
pfa_ss_4nc_u11_y 0
pfa_ss_4nc_v11 0
pfa_ss_4nc_v11_y 0
pfa_ss_4nc_u12 0
pfa_ss_4nc_u12_y 0
pfa_ss_4nc_v12 0
pfa_ss_4nc_v12_y 0
pfa_ss_4nc_u13 0
pfa_ss_4nc_u13_y 0
pfa_ss_4nc_v13 0
pfa_ss_4nc_v13_y 0
pfa_ss_4nc_u14 0
pfa_ss_4nc_u14_y 0
pfa_ss_4nc_v14 0
pfa_ss_4nc_v14_y 0
pfa_ss_4nc_u15 0
pfa_ss_4nc_u15_y 0
pfa_ss_4nc_v15 0
pfa_ss_4nc_v15_y 0
pfa_ss_4nc_u16 0
pfa_ss_4nc_u16_y 0
pfa_ss_4nc_v16 0
pfa_ss_4nc_v16_y 0
pfa_ss_4nc_u17 0
pfa_ss_4nc_u17_y 0
pfa_ss_4nc_v17 0
pfa_ss_4nc_v17_y 0
pfa_ss_4nc_u18 0
pfa_ss_4nc_u18_y 0
pfa_ss_4nc_v18 0
pfa_ss_4nc_v18_y 0
pfa_ss_4nc_u19 0
pfa_ss_4nc_u19_y 0
pfa_ss_4nc_v19 0
pfa_ss_4nc_v19_y 0
ser_ss_4nc_u0 0
ser_ss_4nc_u0_y 0
ser_ss_4nc_v0 0
ser_ss_4nc_v0_y 0
ser_ss_4nc_u1 0
ser_ss_4nc_u1_y 0
ser_ss_4nc_v1 0
ser_ss_4nc_v1_y 0
ser_ss_4nc_u2 2.2691965322155250e-01
ser_ss_4nc_u2_y 1
ser_ss_4nc_v2 0
ser_ss_4nc_v2_y 0
ser_ss_4nc_u3 0
ser_ss_4nc_u3_y 0
ser_ss_4nc_v3 0
ser_ss_4nc_v3_y 0
ser_ss_4nc_u4 0
ser_ss_4nc_u4_y 0
ser_ss_4nc_v4 0
ser_ss_4nc_v4_y 0
ser_ss_4nc_u5 0
ser_ss_4nc_u5_y 0
ser_ss_4nc_v5 0
ser_ss_4nc_v5_y 0
ser_ss_4nc_u6 0
ser_ss_4nc_u6_y 0
ser_ss_4nc_v6 0
ser_ss_4nc_v6_y 0
ser_ss_4nc_u7 0
ser_ss_4nc_u7_y 0
ser_ss_4nc_v7 0
ser_ss_4nc_v7_y 0
ser_ss_4nc_u8 0
ser_ss_4nc_u8_y 0
ser_ss_4nc_v8 0
ser_ss_4nc_v8_y 0
ser_ss_4nc_u9 0
ser_ss_4nc_u9_y 0
ser_ss_4nc_v9 0
ser_ss_4nc_v9_y 0
ser_ss_4nc_u10 0
ser_ss_4nc_u10_y 0
ser_ss_4nc_v10 0
ser_ss_4nc_v10_y 1
ser_ss_4nc_u11 0
ser_ss_4nc_u11_y 0
ser_ss_4nc_v11 0
ser_ss_4nc_v11_y 0
ser_ss_4nc_u12 0
ser_ss_4nc_u12_y 0
ser_ss_4nc_v12 0
ser_ss_4nc_v12_y 0
ser_ss_4nc_u13 0
ser_ss_4nc_u13_y 0
ser_ss_4nc_v13 0
ser_ss_4nc_v13_y 0
ser_ss_4nc_u14 0
ser_ss_4nc_u14_y 0
ser_ss_4nc_v14 0
ser_ss_4nc_v14_y 0
ser_ss_4nc_u15 0
ser_ss_4nc_u15_y 0
ser_ss_4nc_v15 0
ser_ss_4nc_v15_y 0
ser_ss_4nc_u16 0
ser_ss_4nc_u16_y 0
ser_ss_4nc_v16 0
ser_ss_4nc_v16_y 0
ser_ss_4nc_u17 0
ser_ss_4nc_u17_y 0
ser_ss_4nc_v17 0
ser_ss_4nc_v17_y 0
ser_ss_4nc_u18 0
ser_ss_4nc_u18_y 0
ser_ss_4nc_v18 0
ser_ss_4nc_v18_y 0
ser_ss_4nc_u19 0
ser_ss_4nc_u19_y 0
ser_ss_4nc_v19 0
ser_ss_4nc_v19_y 0
ch_e_f_c_4nc_m_perc 1
ch_e_f_c_4nc_y 1
ch_evap_ret_4nc_t_in 1
ch_evap_ret_4nc_y 1
ch1_4nc_1_evap_y 0
ch1_4nc_2_evap_y 0
ch1_4nc_3_evap_y 1
ch1_4nc_4_evap_y 0
ch2_4nc_1_evap_y 0
ch2_4nc_2_evap_y 0
ch2_4nc_3_evap_y 0
ch2_4nc_4_evap_y 1
ch3_4nc_1_evap_y 0
ch3_4nc_2_evap_y 0
ch3_4nc_3_evap_y 0
ch3_4nc_4_evap_y 1
cp_nwk_4nc_y 1
gv2_ss_4nc_y 1
hsb_ss_4nc_y 1
pfa_ss_4nc_y 1
ser_ss_4nc_y 1
